
c turning on binary mode checking

c parsing input formula with 34 variables and 2176 clauses

c finished parsing, read 975 bytes from proof file

c detected empty clause; start verification via backward checking

c 204 of 2176 clauses in core                            

c 99 of 106 lemmas in core using 1020 resolution steps

c 0 RAT lemmas in core; 10 redundant literals in core lemmas

s VERIFIED

c verification time: 0.068 seconds
